p cnf 200 2078
1 2 3 4 5 0
6 7 8 9 10 0
11 12 13 14 15 0
16 17 18 19 20 0
21 22 23 24 25 0
26 27 28 29 30 0
31 32 33 34 35 0
36 37 38 39 40 0
41 42 43 44 45 0
46 47 48 49 50 0
51 52 53 54 55 0
56 57 58 59 60 0
61 62 63 64 65 0
66 67 68 69 70 0
71 72 73 74 75 0
76 77 78 79 80 0
81 82 83 84 85 0
86 87 88 89 90 0
91 92 93 94 95 0
96 97 98 99 100 0
101 102 103 104 105 0
106 107 108 109 110 0
111 112 113 114 115 0
116 117 118 119 120 0
121 122 123 124 125 0
126 127 128 129 130 0
131 132 133 134 135 0
136 137 138 139 140 0
141 142 143 144 145 0
146 147 148 149 150 0
151 152 153 154 155 0
156 157 158 159 160 0
161 162 163 164 165 0
166 167 168 169 170 0
171 172 173 174 175 0
176 177 178 179 180 0
181 182 183 184 185 0
186 187 188 189 190 0
191 192 193 194 195 0
196 197 198 199 200 0
-1 -2 0
-1 -3 0
-1 -4 0
-1 -5 0
-2 -3 0
-2 -4 0
-2 -5 0
-3 -4 0
-3 -5 0
-4 -5 0
-6 -7 0
-6 -8 0
-6 -9 0
-6 -10 0
-7 -8 0
-7 -9 0
-7 -10 0
-8 -9 0
-8 -10 0
-9 -10 0
-11 -12 0
-11 -13 0
-11 -14 0
-11 -15 0
-12 -13 0
-12 -14 0
-12 -15 0
-13 -14 0
-13 -15 0
-14 -15 0
-16 -17 0
-16 -18 0
-16 -19 0
-16 -20 0
-17 -18 0
-17 -19 0
-17 -20 0
-18 -19 0
-18 -20 0
-19 -20 0
-21 -22 0
-21 -23 0
-21 -24 0
-21 -25 0
-22 -23 0
-22 -24 0
-22 -25 0
-23 -24 0
-23 -25 0
-24 -25 0
-26 -27 0
-26 -28 0
-26 -29 0
-26 -30 0
-27 -28 0
-27 -29 0
-27 -30 0
-28 -29 0
-28 -30 0
-29 -30 0
-31 -32 0
-31 -33 0
-31 -34 0
-31 -35 0
-32 -33 0
-32 -34 0
-32 -35 0
-33 -34 0
-33 -35 0
-34 -35 0
-36 -37 0
-36 -38 0
-36 -39 0
-36 -40 0
-37 -38 0
-37 -39 0
-37 -40 0
-38 -39 0
-38 -40 0
-39 -40 0
-41 -42 0
-41 -43 0
-41 -44 0
-41 -45 0
-42 -43 0
-42 -44 0
-42 -45 0
-43 -44 0
-43 -45 0
-44 -45 0
-46 -47 0
-46 -48 0
-46 -49 0
-46 -50 0
-47 -48 0
-47 -49 0
-47 -50 0
-48 -49 0
-48 -50 0
-49 -50 0
-51 -52 0
-51 -53 0
-51 -54 0
-51 -55 0
-52 -53 0
-52 -54 0
-52 -55 0
-53 -54 0
-53 -55 0
-54 -55 0
-56 -57 0
-56 -58 0
-56 -59 0
-56 -60 0
-57 -58 0
-57 -59 0
-57 -60 0
-58 -59 0
-58 -60 0
-59 -60 0
-61 -62 0
-61 -63 0
-61 -64 0
-61 -65 0
-62 -63 0
-62 -64 0
-62 -65 0
-63 -64 0
-63 -65 0
-64 -65 0
-66 -67 0
-66 -68 0
-66 -69 0
-66 -70 0
-67 -68 0
-67 -69 0
-67 -70 0
-68 -69 0
-68 -70 0
-69 -70 0
-71 -72 0
-71 -73 0
-71 -74 0
-71 -75 0
-72 -73 0
-72 -74 0
-72 -75 0
-73 -74 0
-73 -75 0
-74 -75 0
-76 -77 0
-76 -78 0
-76 -79 0
-76 -80 0
-77 -78 0
-77 -79 0
-77 -80 0
-78 -79 0
-78 -80 0
-79 -80 0
-81 -82 0
-81 -83 0
-81 -84 0
-81 -85 0
-82 -83 0
-82 -84 0
-82 -85 0
-83 -84 0
-83 -85 0
-84 -85 0
-86 -87 0
-86 -88 0
-86 -89 0
-86 -90 0
-87 -88 0
-87 -89 0
-87 -90 0
-88 -89 0
-88 -90 0
-89 -90 0
-91 -92 0
-91 -93 0
-91 -94 0
-91 -95 0
-92 -93 0
-92 -94 0
-92 -95 0
-93 -94 0
-93 -95 0
-94 -95 0
-96 -97 0
-96 -98 0
-96 -99 0
-96 -100 0
-97 -98 0
-97 -99 0
-97 -100 0
-98 -99 0
-98 -100 0
-99 -100 0
-101 -102 0
-101 -103 0
-101 -104 0
-101 -105 0
-102 -103 0
-102 -104 0
-102 -105 0
-103 -104 0
-103 -105 0
-104 -105 0
-106 -107 0
-106 -108 0
-106 -109 0
-106 -110 0
-107 -108 0
-107 -109 0
-107 -110 0
-108 -109 0
-108 -110 0
-109 -110 0
-111 -112 0
-111 -113 0
-111 -114 0
-111 -115 0
-112 -113 0
-112 -114 0
-112 -115 0
-113 -114 0
-113 -115 0
-114 -115 0
-116 -117 0
-116 -118 0
-116 -119 0
-116 -120 0
-117 -118 0
-117 -119 0
-117 -120 0
-118 -119 0
-118 -120 0
-119 -120 0
-121 -122 0
-121 -123 0
-121 -124 0
-121 -125 0
-122 -123 0
-122 -124 0
-122 -125 0
-123 -124 0
-123 -125 0
-124 -125 0
-126 -127 0
-126 -128 0
-126 -129 0
-126 -130 0
-127 -128 0
-127 -129 0
-127 -130 0
-128 -129 0
-128 -130 0
-129 -130 0
-131 -132 0
-131 -133 0
-131 -134 0
-131 -135 0
-132 -133 0
-132 -134 0
-132 -135 0
-133 -134 0
-133 -135 0
-134 -135 0
-136 -137 0
-136 -138 0
-136 -139 0
-136 -140 0
-137 -138 0
-137 -139 0
-137 -140 0
-138 -139 0
-138 -140 0
-139 -140 0
-141 -142 0
-141 -143 0
-141 -144 0
-141 -145 0
-142 -143 0
-142 -144 0
-142 -145 0
-143 -144 0
-143 -145 0
-144 -145 0
-146 -147 0
-146 -148 0
-146 -149 0
-146 -150 0
-147 -148 0
-147 -149 0
-147 -150 0
-148 -149 0
-148 -150 0
-149 -150 0
-151 -152 0
-151 -153 0
-151 -154 0
-151 -155 0
-152 -153 0
-152 -154 0
-152 -155 0
-153 -154 0
-153 -155 0
-154 -155 0
-156 -157 0
-156 -158 0
-156 -159 0
-156 -160 0
-157 -158 0
-157 -159 0
-157 -160 0
-158 -159 0
-158 -160 0
-159 -160 0
-161 -162 0
-161 -163 0
-161 -164 0
-161 -165 0
-162 -163 0
-162 -164 0
-162 -165 0
-163 -164 0
-163 -165 0
-164 -165 0
-166 -167 0
-166 -168 0
-166 -169 0
-166 -170 0
-167 -168 0
-167 -169 0
-167 -170 0
-168 -169 0
-168 -170 0
-169 -170 0
-171 -172 0
-171 -173 0
-171 -174 0
-171 -175 0
-172 -173 0
-172 -174 0
-172 -175 0
-173 -174 0
-173 -175 0
-174 -175 0
-176 -177 0
-176 -178 0
-176 -179 0
-176 -180 0
-177 -178 0
-177 -179 0
-177 -180 0
-178 -179 0
-178 -180 0
-179 -180 0
-181 -182 0
-181 -183 0
-181 -184 0
-181 -185 0
-182 -183 0
-182 -184 0
-182 -185 0
-183 -184 0
-183 -185 0
-184 -185 0
-186 -187 0
-186 -188 0
-186 -189 0
-186 -190 0
-187 -188 0
-187 -189 0
-187 -190 0
-188 -189 0
-188 -190 0
-189 -190 0
-191 -192 0
-191 -193 0
-191 -194 0
-191 -195 0
-192 -193 0
-192 -194 0
-192 -195 0
-193 -194 0
-193 -195 0
-194 -195 0
-196 -197 0
-196 -198 0
-196 -199 0
-196 -200 0
-197 -198 0
-197 -199 0
-197 -200 0
-198 -199 0
-198 -200 0
-199 -200 0
-5 -39 0
-1 -36 0
-5 -38 0
-3 -36 0
-2 -39 0
-3 -39 0
-1 -40 0
-2 -73 0
-4 -75 0
-5 -72 0
-4 -73 0
-4 -71 0
-2 -75 0
-1 -71 0
-4 -82 0
-5 -81 0
-4 -81 0
-1 -84 0
-2 -84 0
-4 -85 0
-5 -82 0
-4 -87 0
-3 -88 0
-5 -86 0
-5 -90 0
-1 -86 0
-5 -89 0
-2 -89 0
-2 -120 0
-1 -116 0
-4 -119 0
-1 -118 0
-2 -117 0
-5 -118 0
-5 -117 0
-4 -127 0
-5 -126 0
-4 -128 0
-1 -128 0
-3 -129 0
-4 -130 0
-2 -130 0
-1 -136 0
-5 -136 0
-1 -139 0
-4 -139 0
-5 -139 0
-2 -138 0
-3 -139 0
-1 -150 0
-3 -149 0
-3 -146 0
-1 -148 0
-5 -150 0
-1 -149 0
-2 -149 0
-1 -162 0
-3 -165 0
-1 -163 0
-4 -164 0
-4 -161 0
-3 -162 0
-1 -161 0
-6 -25 0
-8 -22 0
-6 -23 0
-9 -23 0
-9 -25 0
-8 -23 0
-7 -23 0
-9 -47 0
-8 -48 0
-7 -50 0
-9 -49 0
-7 -46 0
-6 -46 0
-7 -47 0
-10 -54 0
-7 -55 0
-7 -53 0
-6 -54 0
-8 -55 0
-9 -53 0
-8 -54 0
-8 -58 0
-7 -56 0
-8 -60 0
-10 -56 0
-6 -60 0
-6 -56 0
-9 -60 0
-9 -62 0
-10 -63 0
-8 -62 0
-6 -65 0
-8 -65 0
-8 -63 0
-6 -63 0
-6 -106 0
-10 -108 0
-8 -106 0
-6 -109 0
-9 -108 0
-6 -108 0
-9 -106 0
-6 -112 0
-8 -115 0
-6 -114 0
-6 -113 0
-7 -112 0
-10 -115 0
-9 -111 0
-8 -164 0
-8 -163 0
-9 -161 0
-7 -164 0
-6 -163 0
-10 -162 0
-10 -165 0
-9 -169 0
-9 -167 0
-9 -168 0
-7 -168 0
-8 -170 0
-8 -169 0
-10 -170 0
-9 -183 0
-9 -184 0
-7 -185 0
-8 -182 0
-8 -185 0
-6 -184 0
-9 -185 0
-9 -192 0
-6 -191 0
-10 -194 0
-9 -193 0
-10 -193 0
-9 -195 0
-7 -191 0
-14 -25 0
-11 -21 0
-11 -23 0
-14 -22 0
-11 -22 0
-13 -23 0
-15 -25 0
-14 -28 0
-14 -29 0
-13 -30 0
-15 -28 0
-13 -27 0
-12 -28 0
-12 -30 0
-12 -34 0
-13 -31 0
-12 -35 0
-11 -35 0
-13 -34 0
-11 -34 0
-14 -34 0
-14 -43 0
-11 -43 0
-13 -42 0
-11 -45 0
-14 -41 0
-14 -44 0
-15 -41 0
-14 -54 0
-15 -54 0
-13 -52 0
-11 -51 0
-14 -52 0
-12 -53 0
-11 -52 0
-12 -83 0
-11 -83 0
-15 -83 0
-13 -85 0
-12 -82 0
-11 -81 0
-14 -81 0
-13 -105 0
-11 -102 0
-12 -102 0
-13 -101 0
-11 -104 0
-14 -103 0
-11 -101 0
-14 -112 0
-11 -113 0
-14 -111 0
-15 -113 0
-15 -115 0
-11 -114 0
-11 -111 0
-14 -118 0
-11 -119 0
-14 -120 0
-15 -119 0
-12 -117 0
-13 -119 0
-12 -116 0
-15 -144 0
-13 -142 0
-11 -143 0
-13 -143 0
-12 -145 0
-14 -143 0
-13 -144 0
-13 -151 0
-11 -155 0
-13 -153 0
-15 -153 0
-14 -155 0
-14 -154 0
-12 -151 0
-11 -156 0
-11 -160 0
-15 -156 0
-13 -160 0
-13 -159 0
-14 -157 0
-15 -158 0
-13 -164 0
-13 -161 0
-12 -161 0
-14 -163 0
-11 -164 0
-13 -163 0
-14 -162 0
-14 -177 0
-11 -177 0
-12 -177 0
-15 -176 0
-11 -176 0
-13 -179 0
-15 -178 0
-16 -27 0
-20 -30 0
-20 -26 0
-20 -29 0
-20 -27 0
-16 -30 0
-18 -29 0
-18 -35 0
-16 -31 0
-20 -35 0
-20 -32 0
-18 -34 0
-19 -35 0
-19 -33 0
-19 -42 0
-18 -44 0
-19 -41 0
-20 -43 0
-16 -43 0
-18 -45 0
-20 -44 0
-18 -49 0
-16 -46 0
-20 -47 0
-17 -49 0
-18 -50 0
-16 -47 0
-18 -46 0
-18 -54 0
-17 -54 0
-20 -54 0
-16 -51 0
-19 -54 0
-18 -51 0
-19 -53 0
-18 -58 0
-17 -59 0
-17 -56 0
-16 -56 0
-16 -58 0
-16 -60 0
-18 -56 0
-19 -92 0
-20 -95 0
-19 -95 0
-18 -92 0
-20 -92 0
-17 -94 0
-16 -91 0
-19 -96 0
-17 -97 0
-16 -98 0
-20 -99 0
-16 -96 0
-16 -100 0
-19 -98 0
-19 -110 0
-19 -107 0
-16 -109 0
-20 -106 0
-19 -109 0
-19 -106 0
-17 -110 0
-17 -151 0
-20 -151 0
-17 -153 0
-18 -152 0
-20 -155 0
-16 -153 0
-17 -152 0
-16 -160 0
-20 -157 0
-19 -156 0
-19 -157 0
-20 -160 0
-20 -159 0
-19 -159 0
-20 -161 0
-18 -161 0
-19 -165 0
-20 -165 0
-16 -161 0
-18 -165 0
-20 -163 0
-17 -178 0
-19 -179 0
-17 -176 0
-19 -178 0
-20 -178 0
-16 -177 0
-17 -177 0
-20 -184 0
-18 -181 0
-18 -182 0
-20 -181 0
-20 -182 0
-17 -181 0
-18 -183 0
-20 -187 0
-19 -188 0
-16 -190 0
-18 -186 0
-17 -186 0
-20 -189 0
-18 -188 0
-23 -35 0
-21 -33 0
-23 -32 0
-25 -32 0
-24 -33 0
-23 -34 0
-24 -32 0
-24 -39 0
-22 -39 0
-23 -37 0
-25 -40 0
-22 -37 0
-25 -39 0
-24 -37 0
-24 -44 0
-25 -42 0
-21 -43 0
-21 -45 0
-25 -45 0
-24 -45 0
-22 -45 0
-24 -52 0
-23 -54 0
-22 -53 0
-24 -51 0
-21 -51 0
-21 -52 0
-21 -54 0
-25 -93 0
-23 -94 0
-21 -95 0
-22 -92 0
-23 -93 0
-24 -94 0
-21 -94 0
-24 -107 0
-25 -106 0
-21 -108 0
-25 -109 0
-21 -109 0
-21 -106 0
-22 -109 0
-24 -132 0
-21 -135 0
-22 -133 0
-25 -133 0
-24 -131 0
-22 -132 0
-22 -134 0
-23 -142 0
-24 -144 0
-21 -142 0
-25 -144 0
-22 -145 0
-23 -145 0
-22 -141 0
-22 -200 0
-25 -197 0
-21 -196 0
-21 -200 0
-24 -196 0
-22 -199 0
-25 -199 0
-28 -31 0
-26 -33 0
-29 -32 0
-30 -32 0
-27 -32 0
-27 -34 0
-28 -35 0
-26 -42 0
-29 -42 0
-30 -44 0
-26 -43 0
-26 -45 0
-30 -41 0
-29 -44 0
-26 -89 0
-27 -90 0
-30 -90 0
-27 -86 0
-30 -87 0
-29 -90 0
-28 -90 0
-27 -93 0
-26 -93 0
-30 -91 0
-26 -94 0
-26 -91 0
-30 -93 0
-28 -94 0
-28 -102 0
-27 -104 0
-27 -105 0
-26 -105 0
-28 -103 0
-27 -103 0
-30 -103 0
-28 -110 0
-29 -107 0
-30 -108 0
-26 -107 0
-26 -110 0
-27 -106 0
-28 -108 0
-26 -111 0
-26 -114 0
-30 -114 0
-30 -113 0
-26 -113 0
-30 -115 0
-27 -113 0
-27 -193 0
-30 -191 0
-26 -195 0
-27 -192 0
-28 -193 0
-30 -194 0
-29 -195 0
-34 -44 0
-33 -45 0
-35 -41 0
-33 -41 0
-32 -45 0
-35 -42 0
-31 -41 0
-31 -46 0
-32 -48 0
-33 -46 0
-31 -50 0
-32 -50 0
-33 -47 0
-35 -49 0
-35 -64 0
-33 -61 0
-35 -65 0
-31 -65 0
-32 -65 0
-34 -65 0
-33 -65 0
-31 -68 0
-32 -70 0
-34 -67 0
-32 -69 0
-31 -67 0
-34 -68 0
-35 -66 0
-34 -103 0
-31 -102 0
-32 -102 0
-33 -103 0
-33 -105 0
-34 -102 0
-32 -105 0
-33 -113 0
-32 -113 0
-31 -113 0
-33 -112 0
-35 -115 0
-34 -115 0
-33 -115 0
-33 -158 0
-34 -157 0
-33 -156 0
-32 -158 0
-35 -159 0
-32 -160 0
-35 -156 0
-33 -169 0
-31 -169 0
-31 -170 0
-32 -170 0
-31 -167 0
-33 -170 0
-31 -168 0
-31 -177 0
-35 -180 0
-32 -177 0
-35 -178 0
-31 -179 0
-34 -176 0
-32 -180 0
-31 -191 0
-33 -191 0
-32 -191 0
-34 -194 0
-35 -193 0
-34 -192 0
-32 -193 0
-37 -46 0
-36 -50 0
-36 -48 0
-37 -47 0
-37 -48 0
-38 -48 0
-38 -49 0
-40 -58 0
-36 -60 0
-37 -58 0
-38 -58 0
-36 -57 0
-40 -60 0
-39 -56 0
-39 -63 0
-37 -64 0
-36 -61 0
-36 -63 0
-40 -62 0
-38 -61 0
-40 -64 0
-37 -104 0
-39 -102 0
-37 -102 0
-40 -104 0
-38 -102 0
-36 -101 0
-39 -101 0
-39 -114 0
-37 -114 0
-38 -113 0
-36 -111 0
-40 -115 0
-39 -115 0
-37 -113 0
-38 -122 0
-36 -124 0
-37 -121 0
-39 -121 0
-39 -122 0
-37 -124 0
-36 -122 0
-38 -128 0
-39 -129 0
-39 -127 0
-36 -126 0
-40 -129 0
-40 -126 0
-37 -126 0
-39 -148 0
-40 -147 0
-37 -147 0
-38 -149 0
-39 -147 0
-37 -150 0
-40 -149 0
-39 -158 0
-40 -156 0
-39 -157 0
-38 -156 0
-39 -159 0
-39 -160 0
-36 -157 0
-36 -177 0
-40 -180 0
-38 -180 0
-37 -180 0
-39 -177 0
-36 -180 0
-37 -176 0
-39 -185 0
-40 -182 0
-36 -185 0
-37 -182 0
-40 -183 0
-36 -181 0
-36 -184 0
-40 -192 0
-38 -194 0
-38 -195 0
-37 -193 0
-39 -194 0
-36 -193 0
-37 -195 0
-37 -200 0
-39 -198 0
-37 -197 0
-39 -199 0
-40 -198 0
-39 -197 0
-40 -200 0
-41 -50 0
-43 -46 0
-44 -50 0
-44 -47 0
-41 -48 0
-43 -48 0
-41 -47 0
-43 -70 0
-43 -66 0
-41 -68 0
-44 -69 0
-42 -66 0
-43 -69 0
-42 -70 0
-43 -84 0
-44 -81 0
-42 -85 0
-41 -81 0
-41 -84 0
-41 -82 0
-42 -81 0
-42 -98 0
-45 -96 0
-41 -98 0
-42 -96 0
-45 -99 0
-41 -99 0
-45 -98 0
-41 -105 0
-42 -101 0
-44 -102 0
-41 -102 0
-42 -105 0
-43 -105 0
-41 -101 0
-45 -109 0
-43 -109 0
-45 -107 0
-41 -106 0
-42 -108 0
-41 -110 0
-41 -109 0
-45 -136 0
-41 -137 0
-42 -139 0
-42 -137 0
-41 -140 0
-44 -136 0
-44 -139 0
-43 -152 0
-42 -151 0
-41 -152 0
-41 -153 0
-43 -151 0
-41 -154 0
-42 -154 0
-43 -168 0
-41 -166 0
-43 -170 0
-42 -167 0
-43 -169 0
-44 -166 0
-41 -168 0
-42 -188 0
-45 -188 0
-43 -187 0
-41 -188 0
-44 -186 0
-44 -188 0
-41 -186 0
-41 -195 0
-45 -193 0
-42 -191 0
-44 -195 0
-41 -193 0
-43 -194 0
-44 -193 0
-47 -52 0
-46 -51 0
-46 -52 0
-50 -51 0
-50 -53 0
-46 -53 0
-50 -55 0
-50 -77 0
-47 -80 0
-47 -77 0
-49 -76 0
-48 -76 0
-48 -78 0
-48 -80 0
-49 -82 0
-48 -85 0
-46 -83 0
-47 -82 0
-47 -81 0
-49 -81 0
-48 -83 0
-47 -136 0
-49 -140 0
-50 -138 0
-48 -136 0
-46 -139 0
-48 -138 0
-47 -140 0
-47 -190 0
-50 -186 0
-48 -188 0
-50 -190 0
-46 -187 0
-48 -189 0
-46 -190 0
-49 -193 0
-49 -194 0
-48 -194 0
-46 -193 0
-48 -193 0
-46 -195 0
-49 -192 0
-55 -60 0
-52 -56 0
-54 -56 0
-52 -58 0
-54 -60 0
-55 -58 0
-55 -56 0
-54 -73 0
-51 -71 0
-55 -74 0
-55 -75 0
-53 -71 0
-55 -73 0
-51 -72 0
-51 -108 0
-52 -110 0
-53 -110 0
-54 -107 0
-53 -107 0
-52 -106 0
-55 -109 0
-55 -139 0
-54 -137 0
-52 -136 0
-53 -137 0
-55 -140 0
-54 -139 0
-55 -136 0
-53 -155 0
-51 -155 0
-55 -152 0
-52 -154 0
-51 -152 0
-54 -155 0
-55 -151 0
-52 -156 0
-54 -158 0
-54 -156 0
-52 -160 0
-51 -156 0
-54 -159 0
-54 -160 0
-59 -85 0
-59 -81 0
-56 -82 0
-58 -83 0
-56 -83 0
-60 -81 0
-60 -82 0
-59 -92 0
-57 -91 0
-58 -95 0
-57 -92 0
-60 -91 0
-57 -95 0
-56 -92 0
-56 -116 0
-59 -120 0
-56 -119 0
-60 -119 0
-58 -120 0
-59 -116 0
-58 -116 0
-60 -134 0
-57 -135 0
-59 -131 0
-60 -133 0
-58 -135 0
-59 -135 0
-60 -132 0
-60 -179 0
-57 -178 0
-56 -178 0
-58 -176 0
-59 -180 0
-58 -179 0
-58 -178 0
-57 -194 0
-57 -193 0
-57 -195 0
-58 -195 0
-57 -192 0
-57 -191 0
-60 -193 0
-56 -197 0
-60 -197 0
-60 -199 0
-57 -200 0
-59 -200 0
-56 -198 0
-57 -197 0
-62 -84 0
-64 -82 0
-62 -83 0
-64 -85 0
-63 -81 0
-64 -83 0
-63 -85 0
-64 -99 0
-63 -98 0
-65 -98 0
-63 -96 0
-62 -99 0
-64 -100 0
-64 -98 0
-64 -102 0
-64 -105 0
-64 -104 0
-62 -101 0
-63 -101 0
-63 -102 0
-62 -104 0
-63 -106 0
-63 -107 0
-64 -107 0
-62 -109 0
-62 -107 0
-64 -110 0
-61 -107 0
-61 -143 0
-65 -145 0
-62 -144 0
-63 -144 0
-65 -141 0
-62 -145 0
-64 -145 0
-63 -146 0
-63 -147 0
-63 -149 0
-62 -147 0
-64 -148 0
-64 -150 0
-62 -150 0
-63 -153 0
-61 -155 0
-62 -155 0
-61 -151 0
-65 -151 0
-61 -152 0
-61 -154 0
-64 -172 0
-63 -175 0
-64 -171 0
-63 -171 0
-65 -174 0
-61 -175 0
-62 -173 0
-63 -194 0
-63 -191 0
-62 -195 0
-61 -194 0
-65 -194 0
-63 -195 0
-61 -191 0
-69 -74 0
-68 -75 0
-67 -74 0
-69 -73 0
-68 -74 0
-67 -75 0
-69 -71 0
-70 -90 0
-69 -88 0
-68 -87 0
-69 -90 0
-70 -86 0
-67 -87 0
-66 -89 0
-67 -92 0
-66 -92 0
-68 -94 0
-70 -92 0
-67 -93 0
-69 -93 0
-69 -92 0
-66 -97 0
-67 -100 0
-66 -98 0
-66 -100 0
-69 -97 0
-69 -100 0
-68 -98 0
-69 -107 0
-70 -107 0
-68 -107 0
-67 -109 0
-66 -106 0
-67 -106 0
-68 -109 0
-66 -137 0
-67 -138 0
-67 -140 0
-69 -139 0
-67 -137 0
-69 -137 0
-66 -136 0
-68 -153 0
-67 -155 0
-70 -154 0
-67 -151 0
-69 -153 0
-67 -153 0
-70 -155 0
-67 -157 0
-69 -158 0
-70 -156 0
-68 -160 0
-69 -156 0
-69 -159 0
-67 -160 0
-67 -172 0
-68 -172 0
-70 -171 0
-68 -173 0
-70 -174 0
-69 -171 0
-66 -171 0
-67 -177 0
-69 -177 0
-66 -178 0
-68 -178 0
-70 -180 0
-70 -179 0
-68 -177 0
-70 -181 0
-67 -181 0
-69 -182 0
-68 -183 0
-68 -185 0
-70 -185 0
-67 -184 0
-69 -194 0
-70 -195 0
-69 -195 0
-67 -195 0
-67 -191 0
-70 -191 0
-67 -192 0
-71 -78 0
-73 -76 0
-72 -78 0
-75 -80 0
-74 -80 0
-71 -79 0
-71 -77 0
-75 -89 0
-72 -89 0
-72 -88 0
-75 -90 0
-71 -87 0
-73 -90 0
-73 -89 0
-74 -140 0
-72 -139 0
-74 -136 0
-72 -138 0
-72 -137 0
-73 -139 0
-75 -137 0
-75 -142 0
-74 -143 0
-73 -142 0
-72 -141 0
-73 -145 0
-71 -145 0
-75 -144 0
-73 -155 0
-72 -154 0
-75 -152 0
-71 -154 0
-73 -153 0
-71 -151 0
-75 -151 0
-74 -186 0
-74 -190 0
-73 -188 0
-72 -189 0
-72 -187 0
-74 -189 0
-75 -187 0
-76 -83 0
-76 -81 0
-78 -85 0
-80 -83 0
-77 -81 0
-80 -84 0
-79 -84 0
-78 -95 0
-79 -91 0
-78 -91 0
-78 -93 0
-79 -95 0
-77 -92 0
-80 -95 0
-77 -115 0
-76 -111 0
-78 -114 0
-79 -114 0
-76 -115 0
-77 -111 0
-80 -114 0
-78 -127 0
-79 -126 0
-79 -130 0
-76 -128 0
-80 -127 0
-78 -130 0
-76 -127 0
-80 -131 0
-76 -131 0
-78 -133 0
-77 -131 0
-79 -133 0
-78 -132 0
-77 -135 0
-79 -175 0
-78 -171 0
-78 -173 0
-77 -171 0
-79 -172 0
-76 -175 0
-76 -171 0
-78 -195 0
-77 -195 0
-79 -191 0
-77 -193 0
-76 -195 0
-80 -194 0
-80 -193 0
-80 -199 0
-79 -197 0
-77 -198 0
-79 -199 0
-80 -198 0
-79 -198 0
-77 -196 0
-81 -103 0
-84 -104 0
-81 -102 0
-81 -105 0
-84 -103 0
-82 -102 0
-85 -103 0
-81 -173 0
-82 -173 0
-83 -174 0
-85 -175 0
-85 -171 0
-85 -172 0
-83 -171 0
-81 -186 0
-84 -188 0
-85 -188 0
-84 -189 0
-82 -187 0
-83 -186 0
-82 -186 0
-87 -103 0
-89 -101 0
-89 -103 0
-90 -105 0
-88 -103 0
-86 -102 0
-90 -101 0
-90 -118 0
-87 -116 0
-89 -116 0
-88 -118 0
-87 -117 0
-87 -119 0
-86 -116 0
-87 -144 0
-87 -143 0
-89 -143 0
-90 -142 0
-86 -144 0
-87 -145 0
-89 -145 0
-88 -196 0
-90 -200 0
-90 -196 0
-90 -199 0
-87 -198 0
-86 -198 0
-86 -199 0
-93 -100 0
-91 -99 0
-95 -100 0
-94 -97 0
-95 -98 0
-92 -98 0
-92 -100 0
-92 -107 0
-92 -108 0
-93 -108 0
-93 -109 0
-94 -107 0
-91 -109 0
-95 -110 0
-95 -114 0
-92 -111 0
-95 -112 0
-95 -111 0
-92 -112 0
-91 -112 0
-91 -113 0
-91 -118 0
-94 -117 0
-94 -120 0
-95 -116 0
-93 -119 0
-93 -117 0
-95 -118 0
-94 -143 0
-93 -144 0
-94 -144 0
-94 -141 0
-92 -141 0
-94 -142 0
-91 -142 0
-93 -147 0
-94 -150 0
-92 -150 0
-91 -148 0
-91 -146 0
-95 -147 0
-92 -149 0
-92 -187 0
-93 -190 0
-92 -189 0
-92 -188 0
-92 -190 0
-91 -190 0
-95 -190 0
-94 -194 0
-93 -192 0
-91 -192 0
-93 -194 0
-92 -194 0
-95 -195 0
-92 -192 0
-100 -117 0
-97 -116 0
-98 -118 0
-100 -120 0
-98 -119 0
-99 -120 0
-99 -119 0
-99 -122 0
-99 -123 0
-98 -125 0
-96 -122 0
-96 -121 0
-99 -121 0
-99 -124 0
-98 -156 0
-96 -157 0
-96 -156 0
-99 -159 0
-100 -157 0
-99 -157 0
-97 -158 0
-96 -163 0
-97 -162 0
-100 -161 0
-100 -165 0
-96 -161 0
-99 -161 0
-97 -163 0
-100 -199 0
-99 -197 0
-96 -196 0
-97 -196 0
-97 -200 0
-99 -198 0
-98 -198 0
-103 -111 0
-102 -114 0
-104 -112 0
-105 -114 0
-103 -112 0
-102 -115 0
-103 -113 0
-103 -122 0
-101 -124 0
-104 -123 0
-101 -121 0
-101 -122 0
-104 -122 0
-105 -125 0
-105 -136 0
-104 -139 0
-102 -140 0
-101 -139 0
-103 -138 0
-104 -136 0
-102 -139 0
-102 -144 0
-105 -144 0
-101 -144 0
-103 -144 0
-101 -145 0
-101 -141 0
-103 -141 0
-102 -148 0
-103 -149 0
-105 -147 0
-101 -146 0
-105 -149 0
-103 -147 0
-103 -146 0
-103 -171 0
-104 -172 0
-101 -172 0
-101 -174 0
-102 -174 0
-104 -173 0
-105 -174 0
-106 -112 0
-106 -113 0
-108 -112 0
-109 -114 0
-108 -115 0
-108 -111 0
-107 -115 0
-107 -139 0
-110 -138 0
-106 -136 0
-109 -136 0
-110 -136 0
-110 -140 0
-106 -140 0
-106 -184 0
-107 -181 0
-109 -185 0
-107 -185 0
-108 -185 0
-108 -181 0
-110 -185 0
-106 -188 0
-110 -186 0
-110 -188 0
-107 -187 0
-109 -186 0
-110 -189 0
-109 -188 0
-109 -200 0
-106 -200 0
-110 -197 0
-107 -196 0
-109 -199 0
-109 -196 0
-107 -198 0
-112 -119 0
-112 -117 0
-113 -116 0
-111 -120 0
-113 -118 0
-111 -118 0
-115 -120 0
-113 -125 0
-114 -125 0
-112 -121 0
-114 -122 0
-112 -124 0
-113 -121 0
-111 -121 0
-114 -134 0
-115 -133 0
-113 -131 0
-115 -132 0
-114 -132 0
-114 -131 0
-113 -133 0
-111 -138 0
-114 -136 0
-113 -137 0
-114 -137 0
-111 -139 0
-112 -140 0
-111 -140 0
-114 -176 0
-115 -176 0
-115 -178 0
-112 -179 0
-112 -177 0
-112 -180 0
-113 -177 0
-115 -189 0
-111 -186 0
-112 -190 0
-114 -188 0
-111 -190 0
-111 -188 0
-114 -189 0
-112 -200 0
-113 -199 0
-112 -199 0
-113 -200 0
-112 -198 0
-114 -196 0
-115 -197 0
-120 -125 0
-116 -124 0
-119 -123 0
-117 -122 0
-119 -124 0
-119 -121 0
-118 -124 0
-117 -134 0
-119 -131 0
-118 -133 0
-117 -131 0
-118 -135 0
-117 -132 0
-119 -133 0
-120 -147 0
-117 -147 0
-116 -146 0
-119 -147 0
-119 -150 0
-116 -149 0
-117 -146 0
-116 -155 0
-116 -152 0
-117 -152 0
-117 -154 0
-117 -155 0
-120 -152 0
-117 -151 0
-117 -162 0
-119 -162 0
-117 -165 0
-119 -165 0
-116 -161 0
-120 -164 0
-118 -162 0
-120 -182 0
-120 -183 0
-118 -182 0
-119 -181 0
-116 -184 0
-119 -185 0
-116 -181 0
-120 -190 0
-117 -190 0
-120 -187 0
-116 -187 0
-117 -187 0
-116 -188 0
-118 -189 0
-123 -131 0
-121 -131 0
-122 -133 0
-121 -133 0
-122 -135 0
-122 -131 0
-123 -132 0
-122 -136 0
-123 -136 0
-124 -139 0
-123 -140 0
-125 -137 0
-125 -139 0
-121 -139 0
-122 -180 0
-125 -178 0
-124 -178 0
-123 -176 0
-124 -176 0
-124 -177 0
-121 -179 0
-125 -184 0
-123 -184 0
-124 -183 0
-125 -182 0
-121 -184 0
-122 -185 0
-125 -181 0
-125 -195 0
-123 -191 0
-125 -194 0
-125 -192 0
-124 -191 0
-122 -194 0
-124 -193 0
-125 -197 0
-121 -197 0
-122 -198 0
-121 -199 0
-121 -198 0
-123 -197 0
-124 -199 0
-130 -133 0
-130 -134 0
-130 -135 0
-129 -135 0
-128 -135 0
-127 -135 0
-129 -134 0
-130 -143 0
-127 -142 0
-129 -142 0
-126 -141 0
-128 -141 0
-126 -142 0
-128 -145 0
-130 -171 0
-126 -172 0
-129 -171 0
-127 -172 0
-126 -171 0
-127 -173 0
-130 -172 0
-127 -190 0
-129 -187 0
-129 -186 0
-128 -188 0
-127 -189 0
-126 -190 0
-129 -190 0
-134 -157 0
-131 -157 0
-132 -159 0
-132 -156 0
-135 -160 0
-135 -158 0
-132 -158 0
-134 -164 0
-131 -164 0
-131 -161 0
-134 -163 0
-135 -165 0
-131 -163 0
-135 -162 0
-135 -178 0
-133 -176 0
-134 -177 0
-132 -176 0
-135 -180 0
-132 -177 0
-135 -179 0
-132 -192 0
-133 -192 0
-131 -195 0
-131 -193 0
-134 -191 0
-134 -194 0
-133 -191 0
-137 -144 0
-139 -141 0
-138 -144 0
-136 -145 0
-138 -141 0
-138 -143 0
-138 -142 0
-139 -147 0
-140 -149 0
-136 -149 0
-140 -148 0
-137 -148 0
-136 -150 0
-139 -146 0
-139 -152 0
-137 -153 0
-140 -152 0
-139 -153 0
-140 -155 0
-139 -155 0
-140 -154 0
-138 -174 0
-137 -174 0
-139 -174 0
-137 -175 0
-139 -172 0
-140 -171 0
-140 -175 0
-140 -200 0
-139 -197 0
-138 -200 0
-140 -196 0
-139 -199 0
-136 -197 0
-136 -196 0
-141 -199 0
-143 -198 0
-145 -199 0
-141 -196 0
-144 -197 0
-142 -200 0
-143 -199 0
-146 -153 0
-150 -155 0
-149 -151 0
-146 -154 0
-150 -154 0
-148 -153 0
-149 -154 0
-148 -191 0
-149 -194 0
-146 -195 0
-149 -193 0
-147 -192 0
-147 -195 0
-148 -192 0
-147 -197 0
-150 -198 0
-148 -200 0
-149 -196 0
-150 -197 0
-147 -199 0
-149 -200 0
-151 -157 0
-155 -160 0
-154 -160 0
-152 -160 0
-155 -157 0
-154 -156 0
-155 -156 0
-153 -186 0
-155 -189 0
-152 -188 0
-152 -189 0
-155 -187 0
-155 -186 0
-155 -190 0
-162 -175 0
-164 -173 0
-163 -174 0
-164 -172 0
-165 -171 0
-162 -173 0
-164 -171 0
-162 -187 0
-163 -188 0
-161 -188 0
-164 -189 0
-161 -190 0
-165 -189 0
-161 -186 0
-170 -173 0
-169 -171 0
-168 -173 0
-169 -172 0
-166 -175 0
-170 -174 0
-167 -171 0
-166 -184 0
-167 -185 0
-169 -185 0
-167 -181 0
-166 -185 0
-168 -184 0
-170 -183 0
-169 -192 0
-170 -194 0
-169 -195 0
-168 -193 0
-170 -192 0
-169 -193 0
-170 -195 0
-174 -186 0
-173 -190 0
-173 -187 0
-171 -188 0
-173 -188 0
-171 -186 0
-174 -190 0
-180 -182 0
-179 -181 0
-176 -185 0
-178 -185 0
-180 -185 0
-178 -184 0
-180 -183 0
-177 -189 0
-176 -189 0
-178 -189 0
-176 -187 0
-177 -188 0
-180 -187 0
-180 -190 0
-183 -195 0
-183 -191 0
-185 -194 0
-182 -192 0
-181 -191 0
-182 -194 0
-184 -195 0
-193 -197 0
-194 -198 0
-192 -196 0
-191 -197 0
-193 -198 0
-195 -196 0
-195 -199 0
